p cnf 24 36
c weights 0.2 0.8 0.2 0.8 0.2 0.8 0.1 0.9 0.1 0.9 0.1 0.9 0.1 0.9 0.3 0.7 0.3 0.7 0.3 0.7 0.4 0.6 0.4 0.6 0.4 0.6 0.4 0.6 1.0 1.0 1.0 1.0 1.0 1.0 1.0 1.0 1.0 1.0 1.0 1.0 1.0 1.0 1.0 1.0 1.0 1.0 1.0 1.0

c 1 stress(a)
c 2 stress(b)
c 3 stress(c)
c 4 friends(a,b)
c 5 friends(a,c)
c 6 friends(b,c)
c 7 friends(c,b)
c 8 p(a)
c 9 p(b)
c 10 p(c)
c 11 p(a,b)
c 12 p(a,c)
c 13 p(b,c)
c 14 p(c,b)
c 15 smokes(a)
c 16 smokes(b)
c 17 smokes(c)
c 18 aux_1
c 19 aux_2
c 20 aux_3
c 21 aux_4
c 22 aux_5
c 23 aux_6
c 24 aux_7

c --- aux_1-aux_3
18 -1 -8 0
-18 1 0
-18 8 0
19 -4 -11 -16 0
-19 4 0
-19 11 0
-19 16 0
20 -5 -12 -17 0
-20 12 0
-20 5 0
-20 17 0

c --- aux_4-8
21 -2 -9 0
-21 2 0
-21 9 0
22 -3 -10 0
-22 3 0
-22 10 0
23 -22 -6 -13 0
-23 22 0
-23 6 0
-23 13 0
24 -21 -7 -14 0
-24 21 0
-24 7 0
-24 14 0

c --- smokes(a)
-15 18 19 20 0
15 -18 0
15 -19 0
15 -20 0

c --- smokes(b)
-16 21 23 0
16 -21 0
16 -23 0

c --- smokes(c)
-17 22 24 0
17 -22 0
17 -24 0

c --- query
15 0

